sat
(:added-eqs                       918
 :arith-eq-adapter                424
 :arith-bound-propagations-lp     5
 :arith-conflicts                 130
 :arith-diseq                     45
 :arith-fixed-eqs                 19
 :arith-grobner-calls             18
 :arith-horner-calls              5
 :arith-horner-cross-nested-forms 135
 :arith-lower                     176
 :arith-make-feasible             154
 :arith-max-columns               2519
 :arith-max-rows                  646
 :arith-nla-add-bounds            19
 :arith-nla-lemmas                73
 :arith-nla-propagate-bounds      41
 :arith-nla-propagate-eq          638
 :arith-nra-calls                 2
 :arith-offset-eqs                1
 :arith-upper                     242
 :binary-propagations             1399
 :card2bv-rewrites                1
 :conflicts                       18
 :decisions                       1027
 :del-clause                      137
 :elim-unconstrained              49
 :final-checks                    50
 :max-memory                      124.80
 :memory                          100.58
 :mk-bool-var                     2459
 :mk-clause                       592
 :mk-clause-binary                5143
 :nlsat-conflicts                 200
 :nlsat-decisions                 1
 :nlsat-propagations              8553
 :nlsat-stages                    12275
 :num-allocs                      91597664
 :num-checks                      1
 :propagations                    1504
 :rlimit-count                    522667
 :sat-mk-clause-2ary              4463
 :sat-mk-clause-nary              6339
 :sat-mk-var                      3163
 :time                            0.69
 :total-time                      0.71)
